min: c;

c = 2.98198312138337 * u5_t4_h2 + 2.98198312138337 * u5_t7_h2 + 3.01665627864272 * u5_t4_h3 + 3.01665627864272 * u5_t7_h3 + 2.95112482372876 * u5_t1_h4 + 2.95112482372876 * u5_t3_h4 + 2.95112482372876 * u5_t4_h4 + 2.95112482372876 * u5_t7_h4 + 3.94078676730146 * u5_t1_h5 + 3.94078676730146 * u5_t3_h5 + 3.94078676730146 * u5_t4_h5 + 3.94078676730146 * u5_t7_h5 + 4.30719312447953 * u5_t1_h6 + 4.30719312447953 * u5_t3_h6 + 4.30719312447953 * u5_t4_h6 + 4.30719312447953 * u5_t6_h6 + 4.30719312447953 * u5_t7_h6 + 3.96287031898745 * u5_t1_h7 + 3.96287031898745 * u5_t3_h7 + 3.96287031898745 * u5_t4_h7 + 3.96287031898745 * u5_t6_h7 + 5.46215717484028 * u5_t1_h8 + 5.46215717484028 * u5_t3_h8 + 5.46215717484028 * u5_t4_h8 + 5.46215717484028 * u5_t6_h8 + 5.44042492588728 * u5_t1_h9 + 5.44042492588728 * u5_t3_h9 + 5.44042492588728 * u5_t4_h9 + 5.44042492588728 * u5_t6_h9 + 4.93905266007066 * u5_t1_h10 + 4.93905266007066 * u5_t3_h10 + 4.93905266007066 * u5_t4_h10 + 4.93905266007066 * u5_t6_h10 + 4.37916244244687 * u5_t1_h11 + 4.37916244244687 * u5_t3_h11 + 4.37916244244687 * u5_t4_h11 + 4.37916244244687 * u5_t6_h11 + 6.67604422490734 * u5_t1_h12 + 6.67604422490734 * u5_t3_h12 + 6.67604422490734 * u5_t4_h12 + 6.67604422490734 * u5_t6_h12 + 4.2824515096109 * u5_t1_h13 + 4.2824515096109 * u5_t3_h13 + 4.2824515096109 * u5_t4_h13 + 4.2824515096109 * u5_t6_h13 + 4.2824515096109 * u5_t8_h13 + 4.94211331127989 * u5_t1_h14 + 4.94211331127989 * u5_t3_h14 + 4.94211331127989 * u5_t4_h14 + 4.94211331127989 * u5_t6_h14 + 4.94211331127989 * u5_t8_h14 + 5.78731649188055 * u5_t1_h15 + 5.78731649188055 * u5_t3_h15 + 5.78731649188055 * u5_t4_h15 + 5.78731649188055 * u5_t6_h15 + 5.78731649188055 * u5_t8_h15 + 5.78731649188055 * u5_t9_h15 + 5.82884568597013 * u5_t1_h16 + 5.82884568597013 * u5_t3_h16 + 5.82884568597013 * u5_t4_h16 + 5.82884568597013 * u5_t5_h16 + 5.82884568597013 * u5_t6_h16 + 5.82884568597013 * u5_t8_h16 + 5.82884568597013 * u5_t9_h16 + 6.15170329350388 * u5_t1_h17 + 6.15170329350388 * u5_t5_h17 + 6.15170329350388 * u5_t6_h17 + 6.15170329350388 * u5_t8_h17 + 6.15170329350388 * u5_t9_h17 + 6.15170329350388 * u5_t10_h17 + 6.12522959204717 * u5_t1_h18 + 6.12522959204717 * u5_t2_h18 + 6.12522959204717 * u5_t5_h18 + 6.12522959204717 * u5_t6_h18 + 6.12522959204717 * u5_t9_h18 + 6.12522959204717 * u5_t10_h18 + 5.19393816692988 * u5_t1_h19 + 5.19393816692988 * u5_t2_h19 + 5.19393816692988 * u5_t5_h19 + 5.19393816692988 * u5_t9_h19 + 5.19393816692988 * u5_t10_h19 + 5.48929245584057 * u5_t1_h20 + 5.48929245584057 * u5_t2_h20 + 5.48929245584057 * u5_t5_h20 + 5.48929245584057 * u5_t9_h20 + 5.48929245584057 * u5_t10_h20 + 5.69074998401818 * u5_t2_h21 + 5.69074998401818 * u5_t5_h21 + 5.69074998401818 * u5_t9_h21 + 5.69074998401818 * u5_t10_h21 + 5.25527026365256 * u5_t2_h22 + 5.25527026365256 * u5_t5_h22 + 5.25527026365256 * u5_t9_h22 + 5.25527026365256 * u5_t10_h22 + 5.85074557020455 * u5_t5_h23 + 5.85074557020455 * u5_t9_h23 + 5.85074557020455 * u5_t10_h23;
0 <= u5_t1_h4 <= 1;
0 <= u5_t1_h5 <= 1;
0 <= u5_t1_h6 <= 1;
0 <= u5_t1_h7 <= 1;
0 <= u5_t1_h8 <= 1;
0 <= u5_t1_h9 <= 1;
0 <= u5_t1_h10 <= 1;
0 <= u5_t1_h11 <= 1;
0 <= u5_t1_h12 <= 1;
0 <= u5_t1_h13 <= 1;
0 <= u5_t1_h14 <= 1;
0 <= u5_t1_h15 <= 1;
0 <= u5_t1_h16 <= 1;
0 <= u5_t1_h17 <= 1;
0 <= u5_t1_h18 <= 1;
0 <= u5_t1_h19 <= 1;
0 <= u5_t1_h20 <= 1;
u5_t1_h4 + u5_t1_h5 + u5_t1_h6 + u5_t1_h7 + u5_t1_h8 + u5_t1_h9 + u5_t1_h10 + u5_t1_h11 + u5_t1_h12 + u5_t1_h13 + u5_t1_h14 + u5_t1_h15 + u5_t1_h16 + u5_t1_h17 + u5_t1_h18 + u5_t1_h19 + u5_t1_h20 = 1;
0 <= u5_t2_h18 <= 1;
0 <= u5_t2_h19 <= 1;
0 <= u5_t2_h20 <= 1;
0 <= u5_t2_h21 <= 1;
0 <= u5_t2_h22 <= 1;
u5_t2_h18 + u5_t2_h19 + u5_t2_h20 + u5_t2_h21 + u5_t2_h22 = 3;
0 <= u5_t3_h4 <= 1;
0 <= u5_t3_h5 <= 1;
0 <= u5_t3_h6 <= 1;
0 <= u5_t3_h7 <= 1;
0 <= u5_t3_h8 <= 1;
0 <= u5_t3_h9 <= 1;
0 <= u5_t3_h10 <= 1;
0 <= u5_t3_h11 <= 1;
0 <= u5_t3_h12 <= 1;
0 <= u5_t3_h13 <= 1;
0 <= u5_t3_h14 <= 1;
0 <= u5_t3_h15 <= 1;
0 <= u5_t3_h16 <= 1;
u5_t3_h4 + u5_t3_h5 + u5_t3_h6 + u5_t3_h7 + u5_t3_h8 + u5_t3_h9 + u5_t3_h10 + u5_t3_h11 + u5_t3_h12 + u5_t3_h13 + u5_t3_h14 + u5_t3_h15 + u5_t3_h16 = 1;
0 <= u5_t4_h2 <= 1;
0 <= u5_t4_h3 <= 1;
0 <= u5_t4_h4 <= 1;
0 <= u5_t4_h5 <= 1;
0 <= u5_t4_h6 <= 1;
0 <= u5_t4_h7 <= 1;
0 <= u5_t4_h8 <= 1;
0 <= u5_t4_h9 <= 1;
0 <= u5_t4_h10 <= 1;
0 <= u5_t4_h11 <= 1;
0 <= u5_t4_h12 <= 1;
0 <= u5_t4_h13 <= 1;
0 <= u5_t4_h14 <= 1;
0 <= u5_t4_h15 <= 1;
0 <= u5_t4_h16 <= 1;
u5_t4_h2 + u5_t4_h3 + u5_t4_h4 + u5_t4_h5 + u5_t4_h6 + u5_t4_h7 + u5_t4_h8 + u5_t4_h9 + u5_t4_h10 + u5_t4_h11 + u5_t4_h12 + u5_t4_h13 + u5_t4_h14 + u5_t4_h15 + u5_t4_h16 = 3;
0 <= u5_t5_h16 <= 1;
0 <= u5_t5_h17 <= 1;
0 <= u5_t5_h18 <= 1;
0 <= u5_t5_h19 <= 1;
0 <= u5_t5_h20 <= 1;
0 <= u5_t5_h21 <= 1;
0 <= u5_t5_h22 <= 1;
0 <= u5_t5_h23 <= 1;
u5_t5_h16 + u5_t5_h17 + u5_t5_h18 + u5_t5_h19 + u5_t5_h20 + u5_t5_h21 + u5_t5_h22 + u5_t5_h23 = 2;
0 <= u5_t6_h6 <= 1;
0 <= u5_t6_h7 <= 1;
0 <= u5_t6_h8 <= 1;
0 <= u5_t6_h9 <= 1;
0 <= u5_t6_h10 <= 1;
0 <= u5_t6_h11 <= 1;
0 <= u5_t6_h12 <= 1;
0 <= u5_t6_h13 <= 1;
0 <= u5_t6_h14 <= 1;
0 <= u5_t6_h15 <= 1;
0 <= u5_t6_h16 <= 1;
0 <= u5_t6_h17 <= 1;
0 <= u5_t6_h18 <= 1;
u5_t6_h6 + u5_t6_h7 + u5_t6_h8 + u5_t6_h9 + u5_t6_h10 + u5_t6_h11 + u5_t6_h12 + u5_t6_h13 + u5_t6_h14 + u5_t6_h15 + u5_t6_h16 + u5_t6_h17 + u5_t6_h18 = 2;
0 <= u5_t7_h2 <= 1;
0 <= u5_t7_h3 <= 1;
0 <= u5_t7_h4 <= 1;
0 <= u5_t7_h5 <= 1;
0 <= u5_t7_h6 <= 1;
u5_t7_h2 + u5_t7_h3 + u5_t7_h4 + u5_t7_h5 + u5_t7_h6 = 1;
0 <= u5_t8_h13 <= 1;
0 <= u5_t8_h14 <= 1;
0 <= u5_t8_h15 <= 1;
0 <= u5_t8_h16 <= 1;
0 <= u5_t8_h17 <= 1;
u5_t8_h13 + u5_t8_h14 + u5_t8_h15 + u5_t8_h16 + u5_t8_h17 = 3;
0 <= u5_t9_h15 <= 1;
0 <= u5_t9_h16 <= 1;
0 <= u5_t9_h17 <= 1;
0 <= u5_t9_h18 <= 1;
0 <= u5_t9_h19 <= 1;
0 <= u5_t9_h20 <= 1;
0 <= u5_t9_h21 <= 1;
0 <= u5_t9_h22 <= 1;
0 <= u5_t9_h23 <= 1;
u5_t9_h15 + u5_t9_h16 + u5_t9_h17 + u5_t9_h18 + u5_t9_h19 + u5_t9_h20 + u5_t9_h21 + u5_t9_h22 + u5_t9_h23 = 1;
0 <= u5_t10_h17 <= 1;
0 <= u5_t10_h18 <= 1;
0 <= u5_t10_h19 <= 1;
0 <= u5_t10_h20 <= 1;
0 <= u5_t10_h21 <= 1;
0 <= u5_t10_h22 <= 1;
0 <= u5_t10_h23 <= 1;
u5_t10_h17 + u5_t10_h18 + u5_t10_h19 + u5_t10_h20 + u5_t10_h21 + u5_t10_h22 + u5_t10_h23 = 1;
